(set-info :smt-lib-version 2.6)
(set-logic UF)
(set-info :source |Benchmarks from the paper: "Extending Sledgehammer with SMT Solvers" by Jasmin Blanchette, Sascha Bohme, and Lawrence C. Paulson, CADE 2011.  Translated to SMT2 by Andrew Reynolds and Morgan Deters.|)
(set-info :category "industrial")
(set-info :status sat)
(declare-sort S1 0)
(declare-sort S2 0)
(declare-sort S3 0)
(declare-sort S4 0)
(declare-sort S5 0)
(declare-sort S6 0)
(declare-sort S7 0)
(declare-sort S8 0)
(declare-sort S9 0)
(declare-sort S10 0)
(declare-sort S11 0)
(declare-sort S12 0)
(declare-sort S13 0)
(declare-sort S14 0)
(declare-sort S15 0)
(declare-sort S16 0)
(declare-sort S17 0)
(declare-sort S18 0)
(declare-sort S19 0)
(declare-sort S20 0)
(declare-sort S21 0)
(declare-sort S22 0)
(declare-sort S23 0)
(declare-sort S24 0)
(declare-sort S25 0)
(declare-sort S26 0)
(declare-sort S27 0)
(declare-sort S28 0)
(declare-sort S29 0)
(declare-sort S30 0)
(declare-sort S31 0)
(declare-sort S32 0)
(declare-sort S33 0)
(declare-sort S34 0)
(declare-sort S35 0)
(declare-sort S36 0)
(declare-sort S37 0)
(declare-sort S38 0)
(declare-sort S39 0)
(declare-sort S40 0)
(declare-sort S41 0)
(declare-sort S42 0)
(declare-sort S43 0)
(declare-sort S44 0)
(declare-fun f1 () S1)
(declare-fun f2 () S1)
(declare-fun f3 (S4 S3) S1)
(declare-fun f4 (S5 S2) S4)
(declare-fun f5 () S5)
(declare-fun f6 (S6 S7) S4)
(declare-fun f7 (S8 S3) S6)
(declare-fun f8 (S9 S10) S8)
(declare-fun f9 () S9)
(declare-fun f10 (S11 S12) S10)
(declare-fun f11 () S11)
(declare-fun f12 () S12)
(declare-fun f13 () S7)
(declare-fun f14 () S5)
(declare-fun f15 () S13)
(declare-fun f16 (S14 S10) S7)
(declare-fun f17 () S14)
(declare-fun f18 () S14)
(declare-fun f19 (S15 S1) S7)
(declare-fun f20 () S15)
(declare-fun f21 (S17 S16) S7)
(declare-fun f22 () S17)
(declare-fun f23 (S19 S18) S7)
(declare-fun f24 () S19)
(declare-fun f25 (S20 S7) S7)
(declare-fun f26 () S20)
(declare-fun f27 () S19)
(declare-fun f28 () S20)
(declare-fun f29 (S21 S7) S13)
(declare-fun f30 () S21)
(declare-fun f31 () S15)
(declare-fun f32 () S10)
(declare-fun f33 (S23 S22) S18)
(declare-fun f34 (S24 S22) S23)
(declare-fun f35 () S24)
(declare-fun f36 (S25 S13) S1)
(declare-fun f37 (S26 S13) S25)
(declare-fun f38 () S26)
(declare-fun f39 (S28 S25) S1)
(declare-fun f40 (S29 S27) S28)
(declare-fun f41 () S29)
(declare-fun f42 () S20)
(declare-fun f43 (S32 S31) S10)
(declare-fun f44 (S33 S12) S32)
(declare-fun f45 (S34 S30) S33)
(declare-fun f46 () S34)
(declare-fun f47 (S35 S30) S32)
(declare-fun f48 () S35)
(declare-fun f49 (S36 S7) S1)
(declare-fun f50 (S37 S7) S36)
(declare-fun f51 () S37)
(declare-fun f52 (S38 S13) S13)
(declare-fun f53 (S39 S13) S38)
(declare-fun f54 () S39)
(declare-fun f55 () S38)
(declare-fun f56 (S40 S7) S3)
(declare-fun f57 (S41 S30) S40)
(declare-fun f58 (S42 S3) S41)
(declare-fun f59 () S42)
(declare-fun f60 (S31 S3) S7)
(declare-fun f61 (S27 S13) S7)
(declare-fun f62 () S27)
(declare-fun f63 (S43 S10) S1)
(declare-fun f64 () S43)
(declare-fun f65 (S44 S7) S20)
(declare-fun f66 () S44)
(declare-fun f67 () S26)
(declare-fun f68 () S38)
(declare-fun f69 () S37)
(declare-fun f70 () S39)
(declare-fun f71 () S27)
(assert (not (= f1 f2)))
(assert (not (forall ((?v0 S2) (?v1 S3)) (=> (= (f3 (f4 f5 ?v0) ?v1) f1) (forall ((?v2 S3)) (=> (= (f3 (f6 (f7 (f8 f9 (f10 f11 f12)) ?v1) f13) ?v2) f1) (= (f3 (f4 f14 ?v0) ?v2) f1)))))))
(assert (forall ((?v0 S12) (?v1 S12)) (= (= (f10 f11 ?v0) (f10 f11 ?v1)) (= ?v0 ?v1))))
(assert (forall ((?v0 S7)) (= (= f13 ?v0) (= ?v0 f13))))
(assert (forall ((?v0 S13)) (= (= f15 ?v0) (= ?v0 f15))))
(assert (forall ((?v0 S12)) (= (f16 f17 (f10 f11 ?v0)) f13)))
(assert (forall ((?v0 S12)) (= (f16 f18 (f10 f11 ?v0)) f13)))
(assert (forall ((?v0 S10) (?v1 S3) (?v2 S7) (?v3 S3) (?v4 S10) (?v5 S3) (?v6 S7) (?v7 S3)) (=> (= (f3 (f6 (f7 (f8 f9 ?v0) ?v1) ?v2) ?v3) f1) (=> (= (f3 (f6 (f7 (f8 f9 ?v4) ?v5) ?v6) ?v7) f1) (exists ((?v8 S7)) (and (= (f3 (f6 (f7 (f8 f9 ?v0) ?v1) ?v8) ?v3) f1) (= (f3 (f6 (f7 (f8 f9 ?v4) ?v5) ?v8) ?v7) f1)))))))
(assert (= (f19 f20 f1) f13))
(assert (= (f19 f20 f2) f13))
(assert (forall ((?v0 S16)) (= (f21 f22 ?v0) f13)))
(assert (forall ((?v0 S18)) (= (f23 f24 ?v0) f13)))
(assert (= (f25 f26 f13) f13))
(assert (forall ((?v0 S18)) (= (f23 f27 ?v0) f13)))
(assert (= (f25 f28 f13) f13))
(assert (= (f29 f30 f13) f15))
(assert (forall ((?v0 S7) (?v1 S7)) (= (= (f25 f28 ?v0) (f25 f28 ?v1)) (= ?v0 ?v1))))
(assert (forall ((?v0 S7) (?v1 S7)) (= (= (f29 f30 ?v0) (f29 f30 ?v1)) (= ?v0 ?v1))))
(assert (= f15 (f29 f30 f13)))
(assert (= (f29 f30 f13) f15))
(assert (forall ((?v0 S7)) (= (= (f29 f30 ?v0) f15) (= ?v0 f13))))
(assert (forall ((?v0 S1)) (= (f19 f31 ?v0) f13)))
(assert (= (f19 f31 f2) f13))
(assert (= (f19 f31 f1) f13))
(assert (= (f16 f18 f32) f13))
(assert (= (f16 f17 f32) f13))
(assert (forall ((?v0 S22) (?v1 S22)) (= (f23 f27 (f33 (f34 f35 ?v0) ?v1)) f13)))
(assert (forall ((?v0 S22) (?v1 S22)) (= (f23 f24 (f33 (f34 f35 ?v0) ?v1)) f13)))
(assert (forall ((?v0 S3) (?v1 S7)) (= (f3 (f6 (f7 (f8 f9 f32) ?v0) ?v1) ?v0) f1)))
(assert (forall ((?v0 S3) (?v1 S7) (?v2 S3)) (=> (= (f3 (f6 (f7 (f8 f9 f32) ?v0) ?v1) ?v2) f1) (=> (=> (= ?v2 ?v0) false) false))))
(assert (forall ((?v0 S7) (?v1 S7)) (= (= (f29 f30 ?v0) (f29 f30 ?v1)) (= ?v0 ?v1))))
(assert (forall ((?v0 S7) (?v1 S7)) (= (= (f29 f30 ?v0) (f29 f30 ?v1)) (= ?v0 ?v1))))
(assert (forall ((?v0 S22) (?v1 S22) (?v2 S22) (?v3 S22)) (= (= (f33 (f34 f35 ?v0) ?v1) (f33 (f34 f35 ?v2) ?v3)) (and (= ?v0 ?v2) (= ?v1 ?v3)))))
(assert (forall ((?v0 S1) (?v1 S7) (?v2 S7)) (let ((?v_0 (= ?v0 f1))) (= (ite ?v_0 (f29 f30 ?v1) (f29 f30 ?v2)) (f29 f30 (ite ?v_0 ?v1 ?v2))))))
(assert (forall ((?v0 S12)) (not (= f32 (f10 f11 ?v0)))))
(assert (forall ((?v0 S12)) (not (= (f10 f11 ?v0) f32))))
(assert (forall ((?v0 S18)) (=> (forall ((?v1 S22) (?v2 S22)) (=> (= ?v0 (f33 (f34 f35 ?v1) ?v2)) false)) false)))
(assert (forall ((?v0 S7)) (= (= (f36 (f37 f38 (f29 f30 ?v0)) f15) f1) (= ?v0 f13))))
(assert (forall ((?v0 S27) (?v1 S25)) (= (f39 (f40 f41 ?v0) ?v1) f1)))
(assert (= (f25 f42 f13) f13))
(assert (forall ((?v0 S30) (?v1 S12) (?v2 S31)) (= (f16 f18 (f43 (f44 (f45 f46 ?v0) ?v1) ?v2)) f13)))
(assert (forall ((?v0 S30) (?v1 S12) (?v2 S31)) (= (f16 f17 (f43 (f44 (f45 f46 ?v0) ?v1) ?v2)) f13)))
(assert (forall ((?v0 S30) (?v1 S31)) (= (f16 f18 (f43 (f47 f48 ?v0) ?v1)) f13)))
(assert (forall ((?v0 S30) (?v1 S31)) (= (f16 f17 (f43 (f47 f48 ?v0) ?v1)) f13)))
(assert (forall ((?v0 S13) (?v1 S13)) (=> (= (f36 (f37 f38 ?v0) ?v1) f1) (=> (= (f36 (f37 f38 ?v1) ?v0) f1) (= ?v0 ?v1)))))
(assert (forall ((?v0 S13) (?v1 S13) (?v2 S13)) (let ((?v_0 (f37 f38 ?v0))) (=> (= (f36 ?v_0 ?v1) f1) (=> (= (f36 (f37 f38 ?v1) ?v2) f1) (= (f36 ?v_0 ?v2) f1))))))
(assert (forall ((?v0 S13) (?v1 S13)) (or (= (f36 (f37 f38 ?v0) ?v1) f1) (= (f36 (f37 f38 ?v1) ?v0) f1))))
(assert (forall ((?v0 S13)) (= (f36 (f37 f38 ?v0) ?v0) f1)))
(assert (forall ((?v0 S7) (?v1 S7)) (= (= (f49 (f50 f51 (f25 f28 ?v0)) (f25 f28 ?v1)) f1) (= (f49 (f50 f51 ?v0) ?v1) f1))))
(assert (forall ((?v0 S7) (?v1 S7)) (= (= (f36 (f37 f38 (f29 f30 ?v0)) (f29 f30 ?v1)) f1) (= (f49 (f50 f51 ?v0) ?v1) f1))))
(assert (forall ((?v0 S30) (?v1 S12) (?v2 S31) (?v3 S30) (?v4 S12) (?v5 S31)) (= (= (f43 (f44 (f45 f46 ?v0) ?v1) ?v2) (f43 (f44 (f45 f46 ?v3) ?v4) ?v5)) (and (= ?v0 ?v3) (and (= ?v1 ?v4) (= ?v2 ?v5))))))
(assert (forall ((?v0 S30) (?v1 S31) (?v2 S30) (?v3 S31)) (= (= (f43 (f47 f48 ?v0) ?v1) (f43 (f47 f48 ?v2) ?v3)) (and (= ?v0 ?v2) (= ?v1 ?v3)))))
(assert (forall ((?v0 S30) (?v1 S12) (?v2 S31) (?v3 S30) (?v4 S31)) (not (= (f43 (f44 (f45 f46 ?v0) ?v1) ?v2) (f43 (f47 f48 ?v3) ?v4)))))
(assert (forall ((?v0 S30) (?v1 S31) (?v2 S30) (?v3 S12) (?v4 S31)) (not (= (f43 (f47 f48 ?v0) ?v1) (f43 (f44 (f45 f46 ?v2) ?v3) ?v4)))))
(assert (forall ((?v0 S7)) (= (f25 f42 ?v0) ?v0)))
(assert (forall ((?v0 S27) (?v1 S25)) (= (= (f39 (f40 f41 ?v0) ?v1) f1) true)))
(assert (= (f36 (f37 f38 f15) f15) f1))
(assert (forall ((?v0 S30) (?v1 S12) (?v2 S31) (?v3 S12)) (not (= (f43 (f44 (f45 f46 ?v0) ?v1) ?v2) (f10 f11 ?v3)))))
(assert (forall ((?v0 S30) (?v1 S31) (?v2 S12)) (not (= (f43 (f47 f48 ?v0) ?v1) (f10 f11 ?v2)))))
(assert (forall ((?v0 S12) (?v1 S30) (?v2 S12) (?v3 S31)) (not (= (f10 f11 ?v0) (f43 (f44 (f45 f46 ?v1) ?v2) ?v3)))))
(assert (forall ((?v0 S12) (?v1 S30) (?v2 S31)) (not (= (f10 f11 ?v0) (f43 (f47 f48 ?v1) ?v2)))))
(assert (forall ((?v0 S30) (?v1 S12) (?v2 S31)) (not (= (f43 (f44 (f45 f46 ?v0) ?v1) ?v2) f32))))
(assert (forall ((?v0 S30) (?v1 S31)) (not (= (f43 (f47 f48 ?v0) ?v1) f32))))
(assert (forall ((?v0 S30) (?v1 S12) (?v2 S31)) (not (= f32 (f43 (f44 (f45 f46 ?v0) ?v1) ?v2)))))
(assert (forall ((?v0 S30) (?v1 S31)) (not (= f32 (f43 (f47 f48 ?v0) ?v1)))))
(assert (forall ((?v0 S7)) (= (f49 (f50 f51 f13) (f25 f28 ?v0)) f1)))
(assert (forall ((?v0 S7)) (= (f36 (f37 f38 f15) (f29 f30 ?v0)) f1)))
(assert (forall ((?v0 S7)) (= (f49 (f50 f51 f13) (f25 f28 ?v0)) f1)))
(assert (forall ((?v0 S7)) (= (f36 (f37 f38 f15) (f29 f30 ?v0)) f1)))
(assert (forall ((?v0 S25)) (= (forall ((?v1 S13)) (=> (= (f36 (f37 f38 f15) ?v1) f1) (= (f36 ?v0 ?v1) f1))) (forall ((?v1 S7)) (= (f36 ?v0 (f29 f30 ?v1)) f1)))))
(assert (forall ((?v0 S25)) (= (exists ((?v1 S13)) (and (= (f36 (f37 f38 f15) ?v1) f1) (= (f36 ?v0 ?v1) f1))) (exists ((?v1 S7)) (= (f36 ?v0 (f29 f30 ?v1)) f1)))))
(assert (forall ((?v0 S7)) (= (f36 (f37 f38 f15) (f29 f30 ?v0)) f1)))
(assert (forall ((?v0 S7)) (= (f36 (f37 f38 f15) (f29 f30 ?v0)) f1)))
(assert (forall ((?v0 S13)) (=> (= (f36 (f37 f38 f15) ?v0) f1) (=> (forall ((?v1 S7)) (=> (= ?v0 (f29 f30 ?v1)) false)) false))))
(assert (forall ((?v0 S13)) (=> (= (f36 (f37 f38 f15) ?v0) f1) (exists ((?v1 S7)) (= ?v0 (f29 f30 ?v1))))))
(assert (forall ((?v0 S13)) (= (f36 (f37 f38 ?v0) ?v0) f1)))
(assert (forall ((?v0 S7)) (= (f49 (f50 f51 ?v0) ?v0) f1)))
(assert (forall ((?v0 S13) (?v1 S1) (?v2 S1)) (let ((?v_0 (= (f36 (f37 f38 f15) ?v0) f1)) (?v_1 (= ?v1 f1)) (?v_2 (= ?v2 f1))) (=> (=> ?v_0 (= ?v_1 ?v_2)) (= (=> ?v_0 ?v_1) (=> ?v_0 ?v_2))))))
(assert (forall ((?v0 S13) (?v1 S1) (?v2 S1)) (let ((?v_0 (= (f36 (f37 f38 f15) ?v0) f1)) (?v_1 (= ?v1 f1)) (?v_2 (= ?v2 f1))) (=> (=> ?v_0 (= ?v_1 ?v_2)) (= (and ?v_0 ?v_1) (and ?v_0 ?v_2))))))
(assert (forall ((?v0 S13)) (=> (= (f36 (f37 f38 f15) ?v0) f1) (=> (forall ((?v1 S7)) (=> (= ?v0 (f29 f30 ?v1)) false)) false))))
(assert (forall ((?v0 S13) (?v1 S13)) (let ((?v_0 (f37 f38 f15))) (=> (= (f36 ?v_0 ?v0) f1) (=> (= (f36 ?v_0 ?v1) f1) (= (f36 ?v_0 (f52 (f53 f54 ?v0) ?v1)) f1))))))
(assert (forall ((?v0 S13)) (= (= (f36 (f37 f38 (f52 f55 ?v0)) f15) f1) (= (f36 (f37 f38 ?v0) f15) f1))))
(assert (forall ((?v0 S7)) (= (f49 (f50 f51 f13) ?v0) f1)))
(assert (forall ((?v0 S7) (?v1 S7)) (=> (= (f49 (f50 f51 ?v0) ?v1) f1) (=> (= (f49 (f50 f51 ?v1) ?v0) f1) (= ?v0 ?v1)))))
(assert (forall ((?v0 S7) (?v1 S7) (?v2 S7)) (let ((?v_0 (f50 f51 ?v0))) (=> (= (f49 ?v_0 ?v1) f1) (=> (= (f49 (f50 f51 ?v1) ?v2) f1) (= (f49 ?v_0 ?v2) f1))))))
(assert (forall ((?v0 S7) (?v1 S7)) (=> (= ?v0 ?v1) (= (f49 (f50 f51 ?v0) ?v1) f1))))
(assert (forall ((?v0 S7) (?v1 S7)) (or (= (f49 (f50 f51 ?v0) ?v1) f1) (= (f49 (f50 f51 ?v1) ?v0) f1))))
(assert (forall ((?v0 S7)) (= (f49 (f50 f51 ?v0) ?v0) f1)))
(assert (forall ((?v0 S13) (?v1 S13)) (= (= (f52 f55 ?v0) (f52 f55 ?v1)) (= ?v0 ?v1))))
(assert (forall ((?v0 S7)) (= (= (f49 (f50 f51 f13) ?v0) f1) true)))
(assert (forall ((?v0 S7)) (= (= (f49 (f50 f51 ?v0) f13) f1) (= ?v0 f13))))
(assert (forall ((?v0 S7)) (let ((?v_0 (f29 f30 ?v0))) (= (f52 f55 ?v_0) ?v_0))))
(assert (forall ((?v0 S10) (?v1 S3) (?v2 S7) (?v3 S3) (?v4 S7)) (let ((?v_0 (f7 (f8 f9 ?v0) ?v1))) (=> (= (f3 (f6 ?v_0 ?v2) ?v3) f1) (=> (= (f49 (f50 f51 ?v2) ?v4) f1) (= (f3 (f6 ?v_0 ?v4) ?v3) f1))))))
(assert (forall ((?v0 S7) (?v1 S7)) (= (= (f36 (f37 f38 (f29 f30 ?v0)) (f29 f30 ?v1)) f1) (= (f49 (f50 f51 ?v0) ?v1) f1))))
(assert (forall ((?v0 S7) (?v1 S7)) (= (= (f36 (f37 f38 (f29 f30 ?v0)) (f29 f30 ?v1)) f1) (= (f49 (f50 f51 ?v0) ?v1) f1))))
(assert (= (f52 f55 f15) f15))
(assert (forall ((?v0 S13)) (= (= f15 (f52 f55 ?v0)) (= ?v0 f15))))
(assert (forall ((?v0 S13)) (= (= (f52 f55 ?v0) f15) (= ?v0 f15))))
(assert (forall ((?v0 S13) (?v1 S13)) (= (= (f36 (f37 f38 (f52 f55 ?v0)) (f52 f55 ?v1)) f1) (= (f36 (f37 f38 ?v0) ?v1) f1))))
(assert (forall ((?v0 S7)) (let ((?v_0 (f29 f30 ?v0))) (= (f52 f55 ?v_0) ?v_0))))
(assert (forall ((?v0 S13) (?v1 S13)) (=> (=> (= (f36 (f37 f38 ?v0) ?v1) f1) false) (=> (=> (= (f36 (f37 f38 ?v1) ?v0) f1) false) false))))
(assert (forall ((?v0 S7) (?v1 S7)) (=> (=> (= (f49 (f50 f51 ?v0) ?v1) f1) false) (=> (=> (= (f49 (f50 f51 ?v1) ?v0) f1) false) false))))
(assert (forall ((?v0 S13) (?v1 S13) (?v2 S13)) (let ((?v_0 (f37 f38 ?v2))) (=> (= (f36 (f37 f38 ?v0) ?v1) f1) (=> (= (f36 ?v_0 ?v0) f1) (= (f36 ?v_0 ?v1) f1))))))
(assert (forall ((?v0 S7) (?v1 S7) (?v2 S7)) (let ((?v_0 (f50 f51 ?v2))) (=> (= (f49 (f50 f51 ?v0) ?v1) f1) (=> (= (f49 ?v_0 ?v0) f1) (= (f49 ?v_0 ?v1) f1))))))
(assert (forall ((?v0 S13) (?v1 S13)) (=> (= (f36 (f37 f38 ?v0) ?v1) f1) (=> (= (f36 (f37 f38 ?v1) ?v0) f1) (= ?v1 ?v0)))))
(assert (forall ((?v0 S7) (?v1 S7)) (=> (= (f49 (f50 f51 ?v0) ?v1) f1) (=> (= (f49 (f50 f51 ?v1) ?v0) f1) (= ?v1 ?v0)))))
(assert (forall ((?v0 S13) (?v1 S13) (?v2 S13)) (let ((?v_0 (f37 f38 ?v0))) (=> (= (f36 ?v_0 ?v1) f1) (=> (= (f36 (f37 f38 ?v1) ?v2) f1) (= (f36 ?v_0 ?v2) f1))))))
(assert (forall ((?v0 S7) (?v1 S7) (?v2 S7)) (let ((?v_0 (f50 f51 ?v0))) (=> (= (f49 ?v_0 ?v1) f1) (=> (= (f49 (f50 f51 ?v1) ?v2) f1) (= (f49 ?v_0 ?v2) f1))))))
(assert (forall ((?v0 S13) (?v1 S13)) (=> (= (f36 (f37 f38 ?v0) ?v1) f1) (=> (= (f36 (f37 f38 ?v1) ?v0) f1) (= ?v0 ?v1)))))
(assert (forall ((?v0 S7) (?v1 S7)) (=> (= (f49 (f50 f51 ?v0) ?v1) f1) (=> (= (f49 (f50 f51 ?v1) ?v0) f1) (= ?v0 ?v1)))))
(assert (forall ((?v0 S13) (?v1 S13) (?v2 S13)) (=> (= (f36 (f37 f38 ?v0) ?v1) f1) (=> (= ?v0 ?v2) (= (f36 (f37 f38 ?v2) ?v1) f1)))))
(assert (forall ((?v0 S7) (?v1 S7) (?v2 S7)) (=> (= (f49 (f50 f51 ?v0) ?v1) f1) (=> (= ?v0 ?v2) (= (f49 (f50 f51 ?v2) ?v1) f1)))))
(assert (forall ((?v0 S13) (?v1 S13) (?v2 S13)) (let ((?v_0 (f37 f38 ?v0))) (=> (= (f36 ?v_0 ?v1) f1) (=> (= ?v1 ?v2) (= (f36 ?v_0 ?v2) f1))))))
(assert (forall ((?v0 S7) (?v1 S7) (?v2 S7)) (let ((?v_0 (f50 f51 ?v0))) (=> (= (f49 ?v_0 ?v1) f1) (=> (= ?v1 ?v2) (= (f49 ?v_0 ?v2) f1))))))
(assert (forall ((?v0 S13) (?v1 S13) (?v2 S13)) (let ((?v_0 (f37 f38 ?v2))) (=> (= ?v0 ?v1) (=> (= (f36 ?v_0 ?v1) f1) (= (f36 ?v_0 ?v0) f1))))))
(assert (forall ((?v0 S7) (?v1 S7) (?v2 S7)) (let ((?v_0 (f50 f51 ?v2))) (=> (= ?v0 ?v1) (=> (= (f49 ?v_0 ?v1) f1) (= (f49 ?v_0 ?v0) f1))))))
(assert (forall ((?v0 S13) (?v1 S13) (?v2 S13)) (=> (= ?v0 ?v1) (=> (= (f36 (f37 f38 ?v1) ?v2) f1) (= (f36 (f37 f38 ?v0) ?v2) f1)))))
(assert (forall ((?v0 S7) (?v1 S7) (?v2 S7)) (=> (= ?v0 ?v1) (=> (= (f49 (f50 f51 ?v1) ?v2) f1) (= (f49 (f50 f51 ?v0) ?v2) f1)))))
(assert (forall ((?v0 S13) (?v1 S13)) (=> (= (f36 (f37 f38 ?v0) ?v1) f1) (= (= (f36 (f37 f38 ?v1) ?v0) f1) (= ?v1 ?v0)))))
(assert (forall ((?v0 S7) (?v1 S7)) (=> (= (f49 (f50 f51 ?v0) ?v1) f1) (= (= (f49 (f50 f51 ?v1) ?v0) f1) (= ?v1 ?v0)))))
(assert (forall ((?v0 S13) (?v1 S13)) (=> (= ?v0 ?v1) (= (f36 (f37 f38 ?v0) ?v1) f1))))
(assert (forall ((?v0 S7) (?v1 S7)) (=> (= ?v0 ?v1) (= (f49 (f50 f51 ?v0) ?v1) f1))))
(assert (forall ((?v0 S13) (?v1 S13)) (= (= ?v0 ?v1) (and (= (f36 (f37 f38 ?v0) ?v1) f1) (= (f36 (f37 f38 ?v1) ?v0) f1)))))
(assert (forall ((?v0 S7) (?v1 S7)) (= (= ?v0 ?v1) (and (= (f49 (f50 f51 ?v0) ?v1) f1) (= (f49 (f50 f51 ?v1) ?v0) f1)))))
(assert (forall ((?v0 S13) (?v1 S13)) (or (= (f36 (f37 f38 ?v0) ?v1) f1) (= (f36 (f37 f38 ?v1) ?v0) f1))))
(assert (forall ((?v0 S7) (?v1 S7)) (or (= (f49 (f50 f51 ?v0) ?v1) f1) (= (f49 (f50 f51 ?v1) ?v0) f1))))
(assert (forall ((?v0 S13)) (let ((?v_0 (f37 f38 f15))) (= (= (f36 ?v_0 (f52 f55 ?v0)) f1) (= (f36 ?v_0 ?v0) f1)))))
(assert (forall ((?v0 S13) (?v1 S38) (?v2 S13) (?v3 S13)) (=> (= ?v0 (f52 ?v1 ?v2)) (=> (= (f36 (f37 f38 ?v3) ?v2) f1) (=> (forall ((?v4 S13) (?v5 S13)) (=> (= (f36 (f37 f38 ?v5) ?v4) f1) (= (f36 (f37 f38 (f52 ?v1 ?v5)) (f52 ?v1 ?v4)) f1))) (= (f36 (f37 f38 (f52 ?v1 ?v3)) ?v0) f1))))))
(assert (forall ((?v0 S7) (?v1 S20) (?v2 S7) (?v3 S7)) (=> (= ?v0 (f25 ?v1 ?v2)) (=> (= (f49 (f50 f51 ?v3) ?v2) f1) (=> (forall ((?v4 S7) (?v5 S7)) (=> (= (f49 (f50 f51 ?v5) ?v4) f1) (= (f49 (f50 f51 (f25 ?v1 ?v5)) (f25 ?v1 ?v4)) f1))) (= (f49 (f50 f51 (f25 ?v1 ?v3)) ?v0) f1))))))
(assert (forall ((?v0 S13) (?v1 S13) (?v2 S38) (?v3 S13)) (=> (= (f36 (f37 f38 ?v0) ?v1) f1) (=> (= (f52 ?v2 ?v0) ?v3) (=> (forall ((?v4 S13) (?v5 S13)) (=> (= (f36 (f37 f38 ?v5) ?v4) f1) (= (f36 (f37 f38 (f52 ?v2 ?v5)) (f52 ?v2 ?v4)) f1))) (= (f36 (f37 f38 ?v3) (f52 ?v2 ?v1)) f1))))))
(assert (forall ((?v0 S7) (?v1 S7) (?v2 S20) (?v3 S7)) (=> (= (f49 (f50 f51 ?v0) ?v1) f1) (=> (= (f25 ?v2 ?v0) ?v3) (=> (forall ((?v4 S7) (?v5 S7)) (=> (= (f49 (f50 f51 ?v5) ?v4) f1) (= (f49 (f50 f51 (f25 ?v2 ?v5)) (f25 ?v2 ?v4)) f1))) (= (f49 (f50 f51 ?v3) (f25 ?v2 ?v1)) f1))))))
(assert (forall ((?v0 S30) (?v1 S31) (?v2 S3) (?v3 S7) (?v4 S3)) (=> (= (f3 (f6 (f7 (f8 f9 (f43 (f47 f48 ?v0) ?v1)) ?v2) ?v3) ?v4) f1) (=> (=> (= ?v4 (f56 (f57 (f58 f59 ?v2) ?v0) (f60 ?v1 ?v2))) false) false))))
(assert (forall ((?v0 S30) (?v1 S31) (?v2 S3) (?v3 S7)) (= (f3 (f6 (f7 (f8 f9 (f43 (f47 f48 ?v0) ?v1)) ?v2) ?v3) (f56 (f57 (f58 f59 ?v2) ?v0) (f60 ?v1 ?v2))) f1)))
(assert (forall ((?v0 S13)) (=> (= (f36 (f37 f38 f15) ?v0) f1) (= (f29 f30 (f61 f62 ?v0)) (f52 f55 ?v0)))))
(assert (forall ((?v0 S7) (?v1 S13)) (= (= ?v0 (f61 f62 ?v1)) (ite (= (f36 (f37 f38 f15) ?v1) f1) (= ?v1 (f29 f30 ?v0)) (= ?v0 f13)))))
(assert (forall ((?v0 S13) (?v1 S7)) (= (= (f61 f62 ?v0) ?v1) (ite (= (f36 (f37 f38 f15) ?v0) f1) (= ?v0 (f29 f30 ?v1)) (= ?v1 f13)))))
(assert (forall ((?v0 S30) (?v1 S12) (?v2 S31)) (=> (= (f63 f64 (f43 (f44 (f45 f46 ?v0) ?v1) ?v2)) f1) (=> (=> (= (f63 f64 (f10 f11 ?v1)) f1) false) false))))
(assert (forall ((?v0 S30) (?v1 S31)) (=> (= (f63 f64 (f43 (f47 f48 ?v0) ?v1)) f1) (=> false false))))
(assert (=> (= (f63 f64 f32) f1) (=> false false)))
(assert (forall ((?v0 S1) (?v1 S13) (?v2 S13)) (let ((?v_0 (= ?v0 f1))) (= (ite ?v_0 (f61 f62 ?v1) (f61 f62 ?v2)) (f61 f62 (ite ?v_0 ?v1 ?v2))))))
(assert (forall ((?v0 S7)) (= (f61 f62 (f29 f30 ?v0)) ?v0)))
(assert (forall ((?v0 S30) (?v1 S31)) (= (f63 f64 (f43 (f47 f48 ?v0) ?v1)) f1)))
(assert (= (f63 f64 f32) f1))
(assert (= f13 (f61 f62 f15)))
(assert (= (f61 f62 f15) f13))
(assert (= (f39 (f40 f41 f62) (f37 f38 f15)) f1))
(assert (forall ((?v0 S36)) (= (exists ((?v1 S7)) (= (f49 ?v0 ?v1) f1)) (exists ((?v1 S13)) (and (= (f36 (f37 f38 f15) ?v1) f1) (= (f49 ?v0 (f61 f62 ?v1)) f1))))))
(assert (forall ((?v0 S36)) (= (forall ((?v1 S7)) (= (f49 ?v0 ?v1) f1)) (forall ((?v1 S13)) (=> (= (f36 (f37 f38 f15) ?v1) f1) (= (f49 ?v0 (f61 f62 ?v1)) f1))))))
(assert (forall ((?v0 S13) (?v1 S13)) (let ((?v_0 (f37 f38 f15))) (=> (= (f36 ?v_0 ?v0) f1) (=> (= (f36 ?v_0 ?v1) f1) (= (= (f61 f62 ?v0) (f61 f62 ?v1)) (= ?v0 ?v1)))))))
(assert (forall ((?v0 S13) (?v1 S13)) (let ((?v_0 (f37 f38 f15))) (=> (= (f36 ?v_0 ?v0) f1) (=> (= (f36 ?v_0 ?v1) f1) (= (= (f61 f62 ?v0) (f61 f62 ?v1)) (= ?v0 ?v1)))))))
(assert (forall ((?v0 S13)) (=> (= (f36 (f37 f38 ?v0) f15) f1) (= (f61 f62 ?v0) f13))))
(assert (forall ((?v0 S13)) (= (= (f61 f62 ?v0) f13) (= (f36 (f37 f38 ?v0) f15) f1))))
(assert (forall ((?v0 S13) (?v1 S13)) (let ((?v_0 (f37 f38 f15))) (=> (= (f36 ?v_0 ?v0) f1) (=> (= (f36 ?v_0 ?v1) f1) (= (= (f49 (f50 f51 (f61 f62 ?v0)) (f61 f62 ?v1)) f1) (= (f36 (f37 f38 ?v0) ?v1) f1)))))))
(assert (forall ((?v0 S13)) (=> (= (f36 (f37 f38 f15) ?v0) f1) (= (f29 f30 (f61 f62 ?v0)) ?v0))))
(assert (forall ((?v0 S7) (?v1 S13)) (= (= (f29 f30 ?v0) ?v1) (and (= ?v0 (f61 f62 ?v1)) (= (f36 (f37 f38 f15) ?v1) f1)))))
(assert (forall ((?v0 S13)) (= (f29 f30 (f61 f62 ?v0)) (ite (= (f36 (f37 f38 f15) ?v0) f1) ?v0 f15))))
(assert (forall ((?v0 S12) (?v1 S30) (?v2 S31)) (=> (= (f63 f64 (f10 f11 ?v0)) f1) (= (f63 f64 (f43 (f44 (f45 f46 ?v1) ?v0) ?v2)) f1))))
(assert (forall ((?v0 S13) (?v1 S13)) (let ((?v_0 (f37 f38 f15))) (=> (= (f36 ?v_0 ?v0) f1) (=> (= (f36 ?v_0 ?v1) f1) (= (f25 (f65 f66 (f61 f62 ?v0)) (f61 f62 ?v1)) (f61 f62 (f52 (f53 f54 ?v0) ?v1))))))))
(assert (forall ((?v0 S36) (?v1 S13)) (= (= (f49 ?v0 (f61 f62 ?v1)) f1) (and (forall ((?v2 S7)) (=> (= ?v1 (f29 f30 ?v2)) (= (f49 ?v0 ?v2) f1))) (=> (= (f36 (f37 f67 ?v1) f15) f1) (= (f49 ?v0 f13) f1))))))
(assert (forall ((?v0 S13) (?v1 S13)) (=> (or (= (f36 (f37 f67 f15) ?v0) f1) (= (f36 (f37 f38 f15) ?v1) f1)) (= (= (f49 (f50 f51 (f61 f62 ?v0)) (f61 f62 ?v1)) f1) (= (f36 (f37 f38 ?v0) ?v1) f1)))))
(assert (forall ((?v0 S7) (?v1 S13)) (let ((?v_0 (f52 f68 ?v1))) (= (= (f29 f30 ?v0) ?v_0) (and (= ?v0 (f61 f62 ?v_0)) (= (f36 (f37 f38 f15) ?v_0) f1))))))
(assert (forall ((?v0 S7)) (let ((?v_0 (f50 f69 f13))) (= (= (f49 ?v_0 (f25 f28 ?v0)) f1) (= (f49 ?v_0 ?v0) f1)))))
(assert (forall ((?v0 S7)) (= (= (f36 (f37 f67 f15) (f29 f30 ?v0)) f1) (= (f49 (f50 f69 f13) ?v0) f1))))
(assert (forall ((?v0 S7) (?v1 S7)) (=> (= (f49 (f50 f51 ?v0) ?v1) f1) (= (f29 f30 (f25 (f65 f66 ?v1) ?v0)) (f52 (f53 f70 (f29 f30 ?v1)) (f29 f30 ?v0))))))
(assert (forall ((?v0 S13) (?v1 S13)) (let ((?v_1 (f52 f68 ?v0)) (?v_0 (f52 f68 ?v1))) (= (= (f36 (f37 f38 ?v_1) ?v_0) f1) (not (= (f36 (f37 f67 ?v_0) ?v_1) f1))))))
(assert (forall ((?v0 S13) (?v1 S13)) (let ((?v_1 (f61 f71 ?v0)) (?v_0 (f61 f71 ?v1))) (= (= (f49 (f50 f51 ?v_1) ?v_0) f1) (not (= (f49 (f50 f69 ?v_0) ?v_1) f1))))))
(assert (forall ((?v0 S13)) (let ((?v_0 (f52 f68 ?v0))) (= (f52 f55 ?v_0) ?v_0))))
(assert (forall ((?v0 S13) (?v1 S13)) (= (f52 f55 (f52 (f53 f70 ?v0) ?v1)) (f52 (f53 f70 (f52 f55 ?v0)) (f52 f55 ?v1)))))
(assert (forall ((?v0 S13) (?v1 S13)) (= (= (f36 (f37 f67 (f52 f55 ?v0)) (f52 f55 ?v1)) f1) (= (f36 (f37 f67 ?v0) ?v1) f1))))
(assert (forall ((?v0 S13) (?v1 S13) (?v2 S13) (?v3 S13)) (=> (= (f52 (f53 f70 ?v0) ?v1) (f52 (f53 f70 ?v2) ?v3)) (= (= (f36 (f37 f38 ?v0) ?v1) f1) (= (f36 (f37 f38 ?v2) ?v3) f1)))))
(assert (forall ((?v0 S13) (?v1 S13)) (= (= (f52 (f53 f70 ?v0) ?v1) f15) (= ?v0 ?v1))))
(assert (forall ((?v0 S13) (?v1 S13)) (= (= ?v0 ?v1) (= (f52 (f53 f70 ?v0) ?v1) f15))))
(assert (forall ((?v0 S13)) (= (f52 (f53 f70 ?v0) ?v0) f15)))
(assert (forall ((?v0 S13)) (= (f52 (f53 f70 ?v0) f15) ?v0)))
(assert (forall ((?v0 S7) (?v1 S7)) (=> (= (f25 (f65 f66 ?v0) ?v1) f13) (=> (= (f25 (f65 f66 ?v1) ?v0) f13) (= ?v0 ?v1)))))
(assert (forall ((?v0 S7)) (= (f25 (f65 f66 ?v0) ?v0) f13)))
(assert (forall ((?v0 S7)) (= (f25 (f65 f66 ?v0) f13) ?v0)))
(assert (forall ((?v0 S7)) (= (f25 (f65 f66 f13) ?v0) f13)))
(assert (forall ((?v0 S13) (?v1 S13) (?v2 S13)) (let ((?v_0 (f37 f67 ?v2))) (=> (= (f36 (f37 f38 ?v0) ?v1) f1) (=> (= (f36 ?v_0 ?v0) f1) (= (f36 ?v_0 ?v1) f1))))))
(assert (forall ((?v0 S7) (?v1 S7) (?v2 S7)) (let ((?v_0 (f50 f69 ?v2))) (=> (= (f49 (f50 f51 ?v0) ?v1) f1) (=> (= (f49 ?v_0 ?v0) f1) (= (f49 ?v_0 ?v1) f1))))))
(assert (forall ((?v0 S13) (?v1 S13) (?v2 S13)) (=> (= (f36 (f37 f38 ?v0) ?v1) f1) (=> (= (f36 (f37 f67 ?v1) ?v2) f1) (= (f36 (f37 f67 ?v0) ?v2) f1)))))
(assert (forall ((?v0 S7) (?v1 S7) (?v2 S7)) (=> (= (f49 (f50 f51 ?v0) ?v1) f1) (=> (= (f49 (f50 f69 ?v1) ?v2) f1) (= (f49 (f50 f69 ?v0) ?v2) f1)))))
(assert (forall ((?v0 S13) (?v1 S13) (?v2 S13)) (=> (= (f36 (f37 f67 ?v0) ?v1) f1) (=> (= (f36 (f37 f38 ?v2) ?v0) f1) (= (f36 (f37 f67 ?v2) ?v1) f1)))))
(assert (forall ((?v0 S7) (?v1 S7) (?v2 S7)) (=> (= (f49 (f50 f69 ?v0) ?v1) f1) (=> (= (f49 (f50 f51 ?v2) ?v0) f1) (= (f49 (f50 f69 ?v2) ?v1) f1)))))
(assert (forall ((?v0 S13) (?v1 S13) (?v2 S13)) (let ((?v_0 (f37 f67 ?v0))) (=> (= (f36 ?v_0 ?v1) f1) (=> (= (f36 (f37 f38 ?v1) ?v2) f1) (= (f36 ?v_0 ?v2) f1))))))
(assert (forall ((?v0 S7) (?v1 S7) (?v2 S7)) (let ((?v_0 (f50 f69 ?v0))) (=> (= (f49 ?v_0 ?v1) f1) (=> (= (f49 (f50 f51 ?v1) ?v2) f1) (= (f49 ?v_0 ?v2) f1))))))
(assert (forall ((?v0 S13) (?v1 S13)) (=> (= (f36 (f37 f38 ?v0) ?v1) f1) (=> (not (= ?v1 ?v0)) (= (f36 (f37 f67 ?v0) ?v1) f1)))))
(assert (forall ((?v0 S7) (?v1 S7)) (=> (= (f49 (f50 f51 ?v0) ?v1) f1) (=> (not (= ?v1 ?v0)) (= (f49 (f50 f69 ?v0) ?v1) f1)))))
(assert (forall ((?v0 S13) (?v1 S13)) (=> (= (f36 (f37 f38 ?v0) ?v1) f1) (=> (not (= ?v0 ?v1)) (= (f36 (f37 f67 ?v0) ?v1) f1)))))
(assert (forall ((?v0 S7) (?v1 S7)) (=> (= (f49 (f50 f51 ?v0) ?v1) f1) (=> (not (= ?v0 ?v1)) (= (f49 (f50 f69 ?v0) ?v1) f1)))))
(assert (forall ((?v0 S13) (?v1 S13)) (=> (= (f36 (f37 f38 ?v0) ?v1) f1) (or (= (f36 (f37 f67 ?v0) ?v1) f1) (= ?v0 ?v1)))))
(assert (forall ((?v0 S7) (?v1 S7)) (=> (= (f49 (f50 f51 ?v0) ?v1) f1) (or (= (f49 (f50 f69 ?v0) ?v1) f1) (= ?v0 ?v1)))))
(assert (forall ((?v0 S13) (?v1 S13)) (=> (= (f36 (f37 f38 ?v0) ?v1) f1) (= (not (= (f36 (f37 f67 ?v0) ?v1) f1)) (= ?v0 ?v1)))))
(assert (forall ((?v0 S7) (?v1 S7)) (=> (= (f49 (f50 f51 ?v0) ?v1) f1) (= (not (= (f49 (f50 f69 ?v0) ?v1) f1)) (= ?v0 ?v1)))))
(assert (forall ((?v0 S13) (?v1 S13)) (=> (= (f36 (f37 f67 ?v0) ?v1) f1) (= (f36 (f37 f38 ?v0) ?v1) f1))))
(assert (forall ((?v0 S7) (?v1 S7)) (=> (= (f49 (f50 f69 ?v0) ?v1) f1) (= (f49 (f50 f51 ?v0) ?v1) f1))))
(assert (forall ((?v0 S13) (?v1 S13)) (=> (= (f36 (f37 f38 ?v0) ?v1) f1) (not (= (f36 (f37 f67 ?v1) ?v0) f1)))))
(assert (forall ((?v0 S7) (?v1 S7)) (=> (= (f49 (f50 f51 ?v0) ?v1) f1) (not (= (f49 (f50 f69 ?v1) ?v0) f1)))))
(assert (forall ((?v0 S13) (?v1 S13)) (=> (not (= ?v0 ?v1)) (=> (= (f36 (f37 f38 ?v1) ?v0) f1) (= (f36 (f37 f67 ?v1) ?v0) f1)))))
(assert (forall ((?v0 S7) (?v1 S7)) (=> (not (= ?v0 ?v1)) (=> (= (f49 (f50 f51 ?v1) ?v0) f1) (= (f49 (f50 f69 ?v1) ?v0) f1)))))
(assert (forall ((?v0 S13) (?v1 S13)) (=> (not (= ?v0 ?v1)) (=> (= (f36 (f37 f38 ?v0) ?v1) f1) (= (f36 (f37 f67 ?v0) ?v1) f1)))))
(assert (forall ((?v0 S7) (?v1 S7)) (=> (not (= ?v0 ?v1)) (=> (= (f49 (f50 f51 ?v0) ?v1) f1) (= (f49 (f50 f69 ?v0) ?v1) f1)))))
(assert (forall ((?v0 S13) (?v1 S13)) (=> (not (= (f36 (f37 f67 ?v0) ?v1) f1)) (= (= (f36 (f37 f38 ?v0) ?v1) f1) (= ?v0 ?v1)))))
(assert (forall ((?v0 S7) (?v1 S7)) (=> (not (= (f49 (f50 f69 ?v0) ?v1) f1)) (= (= (f49 (f50 f51 ?v0) ?v1) f1) (= ?v0 ?v1)))))
(assert (forall ((?v0 S13) (?v1 S13)) (=> (not (= (f36 (f37 f38 ?v0) ?v1) f1)) (= (f36 (f37 f67 ?v1) ?v0) f1))))
(assert (forall ((?v0 S7) (?v1 S7)) (=> (not (= (f49 (f50 f51 ?v0) ?v1) f1)) (= (f49 (f50 f69 ?v1) ?v0) f1))))
(assert (forall ((?v0 S13) (?v1 S13)) (=> (not (= (f36 (f37 f67 ?v0) ?v1) f1)) (= (f36 (f37 f38 ?v1) ?v0) f1))))
(assert (forall ((?v0 S7) (?v1 S7)) (=> (not (= (f49 (f50 f69 ?v0) ?v1) f1)) (= (f49 (f50 f51 ?v1) ?v0) f1))))
(assert (forall ((?v0 S13) (?v1 S13)) (= (= (f36 (f37 f38 ?v0) ?v1) f1) (or (= (f36 (f37 f67 ?v0) ?v1) f1) (= ?v0 ?v1)))))
(assert (forall ((?v0 S7) (?v1 S7)) (= (= (f49 (f50 f51 ?v0) ?v1) f1) (or (= (f49 (f50 f69 ?v0) ?v1) f1) (= ?v0 ?v1)))))
(assert (forall ((?v0 S13) (?v1 S13)) (= (= (f36 (f37 f67 ?v0) ?v1) f1) (and (= (f36 (f37 f38 ?v0) ?v1) f1) (not (= (f36 (f37 f38 ?v1) ?v0) f1))))))
(assert (forall ((?v0 S7) (?v1 S7)) (= (= (f49 (f50 f69 ?v0) ?v1) f1) (and (= (f49 (f50 f51 ?v0) ?v1) f1) (not (= (f49 (f50 f51 ?v1) ?v0) f1))))))
(assert (forall ((?v0 S13) (?v1 S13)) (= (= (f36 (f37 f67 ?v0) ?v1) f1) (and (= (f36 (f37 f38 ?v0) ?v1) f1) (not (= ?v0 ?v1))))))
(assert (forall ((?v0 S7) (?v1 S7)) (= (= (f49 (f50 f69 ?v0) ?v1) f1) (and (= (f49 (f50 f51 ?v0) ?v1) f1) (not (= ?v0 ?v1))))))
(assert (forall ((?v0 S13) (?v1 S13)) (or (= (f36 (f37 f38 ?v0) ?v1) f1) (= (f36 (f37 f67 ?v1) ?v0) f1))))
(assert (forall ((?v0 S7) (?v1 S7)) (or (= (f49 (f50 f51 ?v0) ?v1) f1) (= (f49 (f50 f69 ?v1) ?v0) f1))))
(assert (forall ((?v0 S13) (?v1 S13)) (= (not (= (f36 (f37 f38 ?v0) ?v1) f1)) (= (f36 (f37 f67 ?v1) ?v0) f1))))
(assert (forall ((?v0 S7) (?v1 S7)) (= (not (= (f49 (f50 f51 ?v0) ?v1) f1)) (= (f49 (f50 f69 ?v1) ?v0) f1))))
(assert (forall ((?v0 S13) (?v1 S13)) (= (not (= (f36 (f37 f67 ?v0) ?v1) f1)) (= (f36 (f37 f38 ?v1) ?v0) f1))))
(assert (forall ((?v0 S7) (?v1 S7)) (= (not (= (f49 (f50 f69 ?v0) ?v1) f1)) (= (f49 (f50 f51 ?v1) ?v0) f1))))
(assert (forall ((?v0 S7) (?v1 S7)) (= (f49 (f50 f51 (f25 (f65 f66 ?v0) ?v1)) ?v0) f1)))
(assert (forall ((?v0 S7) (?v1 S7) (?v2 S7)) (let ((?v_0 (f65 f66 ?v2))) (=> (= (f49 (f50 f51 ?v0) ?v1) f1) (= (f49 (f50 f51 (f25 ?v_0 ?v1)) (f25 ?v_0 ?v0)) f1)))))
(assert (forall ((?v0 S7) (?v1 S7) (?v2 S7)) (=> (= (f49 (f50 f51 ?v0) ?v1) f1) (= (f49 (f50 f51 (f25 (f65 f66 ?v0) ?v2)) (f25 (f65 f66 ?v1) ?v2)) f1))))
(assert (forall ((?v0 S7) (?v1 S7)) (let ((?v_0 (f65 f66 ?v1))) (=> (= (f49 (f50 f51 ?v0) ?v1) f1) (= (f25 ?v_0 (f25 ?v_0 ?v0)) ?v0)))))
(assert (forall ((?v0 S7) (?v1 S7) (?v2 S7)) (let ((?v_0 (f50 f51 ?v0))) (=> (= (f49 ?v_0 ?v1) f1) (=> (= (f49 ?v_0 ?v2) f1) (= (= (f25 (f65 f66 ?v1) ?v0) (f25 (f65 f66 ?v2) ?v0)) (= ?v1 ?v2)))))))
(assert (forall ((?v0 S7) (?v1 S7) (?v2 S7)) (let ((?v_0 (f50 f51 ?v0)) (?v_1 (f65 f66 ?v1))) (=> (= (f49 ?v_0 ?v1) f1) (=> (= (f49 ?v_0 ?v2) f1) (= (f25 (f65 f66 (f25 ?v_1 ?v0)) (f25 (f65 f66 ?v2) ?v0)) (f25 ?v_1 ?v2)))))))
(assert (forall ((?v0 S7) (?v1 S7) (?v2 S7)) (let ((?v_0 (f50 f51 ?v0))) (=> (= (f49 ?v_0 ?v1) f1) (=> (= (f49 ?v_0 ?v2) f1) (= (= (f49 (f50 f51 (f25 (f65 f66 ?v1) ?v0)) (f25 (f65 f66 ?v2) ?v0)) f1) (= (f49 (f50 f51 ?v1) ?v2) f1)))))))
(assert (forall ((?v0 S13) (?v1 S13)) (= (= (f36 (f37 f38 (f52 f68 ?v0)) (f52 f68 ?v1)) f1) (= (f36 (f37 f38 ?v0) ?v1) f1))))
(assert (forall ((?v0 S13) (?v1 S13)) (= (= (f36 (f37 f67 ?v0) ?v1) f1) (and (= (f36 (f37 f38 ?v0) ?v1) f1) (not (= ?v0 ?v1))))))
(assert (forall ((?v0 S13)) (let ((?v_0 (f52 f68 ?v0))) (= (f29 f30 (f61 f71 ?v0)) (ite (= (f36 (f37 f38 f15) ?v_0) f1) ?v_0 f15)))))
(assert (forall ((?v0 S13)) (= (f52 f68 ?v0) (f52 f55 ?v0))))
(assert (forall ((?v0 S7) (?v1 S7) (?v2 S7)) (let ((?v_0 (f65 f66 ?v0))) (= (f25 (f65 f66 (f25 ?v_0 ?v1)) ?v2) (f25 (f65 f66 (f25 ?v_0 ?v2)) ?v1)))))
(assert (forall ((?v0 S13) (?v1 S13) (?v2 S13) (?v3 S13)) (=> (= (f52 (f53 f70 ?v0) ?v1) (f52 (f53 f70 ?v2) ?v3)) (= (= ?v0 ?v1) (= ?v2 ?v3)))))
(assert (forall ((?v0 S13) (?v1 S13) (?v2 S13) (?v3 S13)) (=> (= (f52 (f53 f70 ?v0) ?v1) (f52 (f53 f70 ?v2) ?v3)) (= (= (f36 (f37 f67 ?v0) ?v1) f1) (= (f36 (f37 f67 ?v2) ?v3) f1)))))
(assert (forall ((?v0 S7) (?v1 S7)) (= (= (f36 (f37 f67 (f29 f30 ?v0)) (f29 f30 ?v1)) f1) (= (f49 (f50 f69 ?v0) ?v1) f1))))
(assert (forall ((?v0 S7) (?v1 S7)) (= (= (f49 (f50 f69 (f25 f28 ?v0)) (f25 f28 ?v1)) f1) (= (f49 (f50 f69 ?v0) ?v1) f1))))
(assert (forall ((?v0 S7) (?v1 S7)) (=> (= (f49 (f50 f69 ?v0) ?v1) f1) (= (f36 (f37 f67 (f29 f30 ?v0)) (f29 f30 ?v1)) f1))))
(assert (forall ((?v0 S7) (?v1 S7)) (=> (= (f49 (f50 f69 ?v0) ?v1) f1) (= (f49 (f50 f69 (f25 f28 ?v0)) (f25 f28 ?v1)) f1))))
(assert (forall ((?v0 S7) (?v1 S7)) (=> (= (f36 (f37 f67 (f29 f30 ?v0)) (f29 f30 ?v1)) f1) (= (f49 (f50 f69 ?v0) ?v1) f1))))
(assert (forall ((?v0 S7) (?v1 S7)) (=> (= (f49 (f50 f69 (f25 f28 ?v0)) (f25 f28 ?v1)) f1) (= (f49 (f50 f69 ?v0) ?v1) f1))))
(assert (forall ((?v0 S13)) (= (f52 f68 ?v0) ?v0)))
(assert (forall ((?v0 S13) (?v1 S13)) (= (f52 f68 (f52 (f53 f70 ?v0) ?v1)) (f52 (f53 f70 (f52 f68 ?v0)) (f52 f68 ?v1)))))
(assert (forall ((?v0 S13) (?v1 S13)) (or (= (f36 (f37 f67 ?v0) ?v1) f1) (or (= ?v0 ?v1) (= (f36 (f37 f67 ?v1) ?v0) f1)))))
(assert (forall ((?v0 S13) (?v1 S13)) (let ((?v_0 (f52 f68 ?v0))) (= (= ?v_0 ?v1) (= ?v1 ?v_0)))))
(assert (forall ((?v0 S13) (?v1 S7)) (let ((?v_0 (f61 f71 ?v0))) (= (= ?v_0 ?v1) (= ?v1 ?v_0)))))
(assert (forall ((?v0 S13) (?v1 S13)) (= (= (f52 f68 ?v0) (f52 f68 ?v1)) (= ?v0 ?v1))))
(assert (forall ((?v0 S13) (?v1 S13)) (= (= (f36 (f37 f67 (f52 f68 ?v0)) (f52 f68 ?v1)) f1) (= (f36 (f37 f67 ?v0) ?v1) f1))))
(assert (forall ((?v0 S13) (?v1 S13)) (= (= (f36 (f37 f67 (f52 f68 ?v0)) (f52 f68 ?v1)) f1) (= (f36 (f37 f67 ?v0) ?v1) f1))))
(assert (forall ((?v0 S13) (?v1 S13)) (= (= (f36 (f37 f67 ?v0) ?v1) f1) (= (f36 (f37 f67 (f52 (f53 f70 ?v0) ?v1)) f15) f1))))
(assert (forall ((?v0 S13)) (not (= (f36 (f37 f67 ?v0) ?v0) f1))))
(assert (forall ((?v0 S7)) (not (= (f49 (f50 f69 ?v0) ?v0) f1))))
(assert (forall ((?v0 S13) (?v1 S13)) (= (not (= ?v0 ?v1)) (or (= (f36 (f37 f67 ?v0) ?v1) f1) (= (f36 (f37 f67 ?v1) ?v0) f1)))))
(assert (forall ((?v0 S7) (?v1 S7)) (= (not (= ?v0 ?v1)) (or (= (f49 (f50 f69 ?v0) ?v1) f1) (= (f49 (f50 f69 ?v1) ?v0) f1)))))
(assert (forall ((?v0 S13) (?v1 S13)) (= (not (= (f36 (f37 f67 ?v0) ?v1) f1)) (or (= (f36 (f37 f67 ?v1) ?v0) f1) (= ?v0 ?v1)))))
(assert (forall ((?v0 S7) (?v1 S7)) (= (not (= (f49 (f50 f69 ?v0) ?v1) f1)) (or (= (f49 (f50 f69 ?v1) ?v0) f1) (= ?v0 ?v1)))))
(assert (forall ((?v0 S13) (?v1 S13)) (or (= (f36 (f37 f67 ?v0) ?v1) f1) (or (= ?v0 ?v1) (= (f36 (f37 f67 ?v1) ?v0) f1)))))
(assert (forall ((?v0 S7) (?v1 S7)) (or (= (f49 (f50 f69 ?v0) ?v1) f1) (or (= ?v0 ?v1) (= (f49 (f50 f69 ?v1) ?v0) f1)))))
(assert (forall ((?v0 S13) (?v1 S13)) (=> (not (= (f36 (f37 f67 ?v0) ?v1) f1)) (= (not (= (f36 (f37 f67 ?v1) ?v0) f1)) (= ?v1 ?v0)))))
(assert (forall ((?v0 S7) (?v1 S7)) (=> (not (= (f49 (f50 f69 ?v0) ?v1) f1)) (= (not (= (f49 (f50 f69 ?v1) ?v0) f1)) (= ?v1 ?v0)))))
(assert (forall ((?v0 S13) (?v1 S13)) (=> (not (= ?v0 ?v1)) (=> (=> (= (f36 (f37 f67 ?v0) ?v1) f1) false) (=> (=> (= (f36 (f37 f67 ?v1) ?v0) f1) false) false)))))
(assert (forall ((?v0 S7) (?v1 S7)) (=> (not (= ?v0 ?v1)) (=> (=> (= (f49 (f50 f69 ?v0) ?v1) f1) false) (=> (=> (= (f49 (f50 f69 ?v1) ?v0) f1) false) false)))))
(assert (forall ((?v0 S13) (?v1 S13)) (=> (= (f36 (f37 f67 ?v0) ?v1) f1) (not (= ?v0 ?v1)))))
(assert (forall ((?v0 S7) (?v1 S7)) (=> (= (f49 (f50 f69 ?v0) ?v1) f1) (not (= ?v0 ?v1)))))
(assert (forall ((?v0 S13) (?v1 S13)) (=> (= (f36 (f37 f67 ?v0) ?v1) f1) (not (= (f36 (f37 f67 ?v1) ?v0) f1)))))
(assert (forall ((?v0 S7) (?v1 S7)) (=> (= (f49 (f50 f69 ?v0) ?v1) f1) (not (= (f49 (f50 f69 ?v1) ?v0) f1)))))
(assert (forall ((?v0 S13) (?v1 S13)) (=> (= (f36 (f37 f67 ?v0) ?v1) f1) (= (not (= (f36 (f37 f67 ?v1) ?v0) f1)) true))))
(assert (forall ((?v0 S7) (?v1 S7)) (=> (= (f49 (f50 f69 ?v0) ?v1) f1) (= (not (= (f49 (f50 f69 ?v1) ?v0) f1)) true))))
(assert (forall ((?v0 S13) (?v1 S13)) (=> (= (f36 (f37 f67 ?v0) ?v1) f1) (= (= ?v0 ?v1) false))))
(assert (forall ((?v0 S7) (?v1 S7)) (=> (= (f49 (f50 f69 ?v0) ?v1) f1) (= (= ?v0 ?v1) false))))
(assert (forall ((?v0 S13) (?v1 S13)) (=> (= (f36 (f37 f67 ?v0) ?v1) f1) (= (= ?v1 ?v0) false))))
(assert (forall ((?v0 S7) (?v1 S7)) (=> (= (f49 (f50 f69 ?v0) ?v1) f1) (= (= ?v1 ?v0) false))))
(assert (forall ((?v0 S13) (?v1 S13) (?v2 S1)) (=> (= (f36 (f37 f67 ?v0) ?v1) f1) (= (=> (= (f36 (f37 f67 ?v1) ?v0) f1) (= ?v2 f1)) true))))
(assert (forall ((?v0 S7) (?v1 S7) (?v2 S1)) (=> (= (f49 (f50 f69 ?v0) ?v1) f1) (= (=> (= (f49 (f50 f69 ?v1) ?v0) f1) (= ?v2 f1)) true))))
(assert (forall ((?v0 S13) (?v1 S13)) (=> (= (f36 (f37 f67 ?v0) ?v1) f1) (=> (= (f36 (f37 f67 ?v1) ?v0) f1) false))))
(assert (forall ((?v0 S7) (?v1 S7)) (=> (= (f49 (f50 f69 ?v0) ?v1) f1) (=> (= (f49 (f50 f69 ?v1) ?v0) f1) false))))
(assert (forall ((?v0 S13) (?v1 S13)) (=> (= (f36 (f37 f67 ?v0) ?v1) f1) (=> (= (f36 (f37 f67 ?v1) ?v0) f1) false))))
(assert (forall ((?v0 S7) (?v1 S7)) (=> (= (f49 (f50 f69 ?v0) ?v1) f1) (=> (= (f49 (f50 f69 ?v1) ?v0) f1) false))))
(assert (forall ((?v0 S13) (?v1 S13) (?v2 S13)) (=> (= ?v0 ?v1) (=> (= (f36 (f37 f67 ?v1) ?v2) f1) (= (f36 (f37 f67 ?v0) ?v2) f1)))))
(assert (forall ((?v0 S7) (?v1 S7) (?v2 S7)) (=> (= ?v0 ?v1) (=> (= (f49 (f50 f69 ?v1) ?v2) f1) (= (f49 (f50 f69 ?v0) ?v2) f1)))))
(assert (forall ((?v0 S13) (?v1 S13) (?v2 S13)) (let ((?v_0 (f37 f67 ?v2))) (=> (= ?v0 ?v1) (=> (= (f36 ?v_0 ?v1) f1) (= (f36 ?v_0 ?v0) f1))))))
(assert (forall ((?v0 S7) (?v1 S7) (?v2 S7)) (let ((?v_0 (f50 f69 ?v2))) (=> (= ?v0 ?v1) (=> (= (f49 ?v_0 ?v1) f1) (= (f49 ?v_0 ?v0) f1))))))
(assert (forall ((?v0 S13) (?v1 S13) (?v2 S13)) (let ((?v_0 (f37 f67 ?v0))) (=> (= (f36 ?v_0 ?v1) f1) (=> (= ?v1 ?v2) (= (f36 ?v_0 ?v2) f1))))))
(assert (forall ((?v0 S7) (?v1 S7) (?v2 S7)) (let ((?v_0 (f50 f69 ?v0))) (=> (= (f49 ?v_0 ?v1) f1) (=> (= ?v1 ?v2) (= (f49 ?v_0 ?v2) f1))))))
(assert (forall ((?v0 S13) (?v1 S13) (?v2 S13)) (=> (= (f36 (f37 f67 ?v0) ?v1) f1) (=> (= ?v0 ?v2) (= (f36 (f37 f67 ?v2) ?v1) f1)))))
(assert (forall ((?v0 S7) (?v1 S7) (?v2 S7)) (=> (= (f49 (f50 f69 ?v0) ?v1) f1) (=> (= ?v0 ?v2) (= (f49 (f50 f69 ?v2) ?v1) f1)))))
(assert (forall ((?v0 S13) (?v1 S13) (?v2 S13)) (let ((?v_0 (f37 f67 ?v0))) (=> (= (f36 ?v_0 ?v1) f1) (=> (= (f36 (f37 f67 ?v1) ?v2) f1) (= (f36 ?v_0 ?v2) f1))))))
(assert (forall ((?v0 S7) (?v1 S7) (?v2 S7)) (let ((?v_0 (f50 f69 ?v0))) (=> (= (f49 ?v_0 ?v1) f1) (=> (= (f49 (f50 f69 ?v1) ?v2) f1) (= (f49 ?v_0 ?v2) f1))))))
(assert (forall ((?v0 S13) (?v1 S13) (?v2 S13)) (let ((?v_0 (f37 f67 ?v2))) (=> (= (f36 (f37 f67 ?v0) ?v1) f1) (=> (= (f36 ?v_0 ?v0) f1) (= (f36 ?v_0 ?v1) f1))))))
(assert (forall ((?v0 S7) (?v1 S7) (?v2 S7)) (let ((?v_0 (f50 f69 ?v2))) (=> (= (f49 (f50 f69 ?v0) ?v1) f1) (=> (= (f49 ?v_0 ?v0) f1) (= (f49 ?v_0 ?v1) f1))))))
(assert (forall ((?v0 S13) (?v1 S13)) (=> (= (f36 (f37 f67 ?v0) ?v1) f1) (=> (=> (not false) (= (f36 (f37 f67 ?v1) ?v0) f1)) false))))
(assert (forall ((?v0 S7) (?v1 S7)) (=> (= (f49 (f50 f69 ?v0) ?v1) f1) (=> (=> (not false) (= (f49 (f50 f69 ?v1) ?v0) f1)) false))))
(assert (forall ((?v0 S13) (?v1 S13)) (=> (=> (= (f36 (f37 f67 ?v0) ?v1) f1) false) (=> (=> (= ?v0 ?v1) false) (=> (=> (= (f36 (f37 f67 ?v1) ?v0) f1) false) false)))))
(assert (forall ((?v0 S7) (?v1 S7)) (=> (=> (= (f49 (f50 f69 ?v0) ?v1) f1) false) (=> (=> (= ?v0 ?v1) false) (=> (=> (= (f49 (f50 f69 ?v1) ?v0) f1) false) false)))))
(assert (forall ((?v0 S13)) (= (= (f36 (f37 f67 (f52 f55 ?v0)) f15) f1) (= (f36 (f37 f67 ?v0) f15) f1))))
(assert (forall ((?v0 S13)) (let ((?v_0 (f37 f67 f15))) (= (= (f36 ?v_0 (f52 f55 ?v0)) f1) (= (f36 ?v_0 ?v0) f1)))))
(assert (forall ((?v0 S13) (?v1 S13)) (= (= (f36 (f37 f38 ?v0) ?v1) f1) (= (f36 (f37 f38 (f52 (f53 f70 ?v0) ?v1)) f15) f1))))
(assert (forall ((?v0 S13)) (= (f52 f68 ?v0) (f52 f55 ?v0))))
(assert (forall ((?v0 S13) (?v1 S13)) (= (= (f36 (f37 f38 (f52 f68 ?v0)) (f52 f68 ?v1)) f1) (= (f36 (f37 f38 ?v0) ?v1) f1))))
(assert (forall ((?v0 S7) (?v1 S7)) (=> (= (f49 (f50 f51 ?v0) ?v1) f1) (= (f25 (f65 f66 ?v0) ?v1) f13))))
(assert (forall ((?v0 S7) (?v1 S7)) (= (= (f25 (f65 f66 ?v0) ?v1) f13) (= (f49 (f50 f51 ?v0) ?v1) f1))))
(assert (forall ((?v0 S7)) (let ((?v_0 (f29 f30 ?v0))) (= (f52 f68 ?v_0) ?v_0))))
(assert (forall ((?v0 S7)) (= (f61 f71 (f29 f30 ?v0)) (f25 f28 ?v0))))
(assert (forall ((?v0 S7)) (not (= (f49 (f50 f69 (f25 f28 ?v0)) f13) f1))))
(assert (forall ((?v0 S7)) (not (= (f36 (f37 f67 (f29 f30 ?v0)) f15) f1))))
(assert (forall ((?v0 S7)) (not (= (f36 (f37 f67 (f29 f30 ?v0)) f15) f1))))
(assert (forall ((?v0 S7) (?v1 S7)) (= (f52 (f53 f54 (f29 f30 ?v0)) (f29 f30 ?v1)) (f29 f30 (f25 (f65 f66 ?v0) ?v1)))))
(assert (forall ((?v0 S13)) (exists ((?v1 S13)) (forall ((?v2 S13)) (=> (= (f36 (f37 f67 ?v2) ?v1) f1) (= (= (f36 (f37 f38 ?v0) ?v2) f1) false))))))
(assert (forall ((?v0 S7)) (exists ((?v1 S7)) (forall ((?v2 S7)) (=> (= (f49 (f50 f69 ?v2) ?v1) f1) (= (= (f49 (f50 f51 ?v0) ?v2) f1) false))))))
(assert (forall ((?v0 S13)) (exists ((?v1 S13)) (forall ((?v2 S13)) (=> (= (f36 (f37 f67 ?v1) ?v2) f1) (= (= (f36 (f37 f38 ?v0) ?v2) f1) true))))))
(assert (forall ((?v0 S7)) (exists ((?v1 S7)) (forall ((?v2 S7)) (=> (= (f49 (f50 f69 ?v1) ?v2) f1) (= (= (f49 (f50 f51 ?v0) ?v2) f1) true))))))
(assert (forall ((?v0 S13)) (exists ((?v1 S13)) (forall ((?v2 S13)) (=> (= (f36 (f37 f67 ?v2) ?v1) f1) (= (= (f36 (f37 f38 ?v2) ?v0) f1) true))))))
(assert (forall ((?v0 S7)) (exists ((?v1 S7)) (forall ((?v2 S7)) (=> (= (f49 (f50 f69 ?v2) ?v1) f1) (= (= (f49 (f50 f51 ?v2) ?v0) f1) true))))))
(assert (forall ((?v0 S7)) (=> (= (f49 (f50 f69 ?v0) f13) f1) false)))
(check-sat)
(exit)
